(declare-const X String)
; ^\d{4}(\/|-)([0][1-9]|[1][0-2])(\/|-)([0][1-9]|[1-2][0-9]|[3][0-1])$
(assert (str.in_re X (re.++ ((_ re.loop 4 4) (re.range "0" "9")) (re.union (str.to_re "/") (str.to_re "-")) (re.union (re.++ (str.to_re "0") (re.range "1" "9")) (re.++ (str.to_re "1") (re.range "0" "2"))) (re.union (str.to_re "/") (str.to_re "-")) (re.union (re.++ (str.to_re "0") (re.range "1" "9")) (re.++ (re.range "1" "2") (re.range "0" "9")) (re.++ (str.to_re "3") (re.range "0" "1"))) (str.to_re "\u{a}"))))
; ^[5,6]\d{7}|^$
(assert (not (str.in_re X (re.union (re.++ (re.union (str.to_re "5") (str.to_re ",") (str.to_re "6")) ((_ re.loop 7 7) (re.range "0" "9"))) (str.to_re "\u{a}")))))
; /\r\nReferer\x3A\x20http\x3A\x2F\x2f[a-z0-9\x2d\x2e]+\x2F\x3Fdo\x3Dpayment\x26ver\x3D\d+\x26sid\x3D\d+\x26sn\x3D\d+\r\n/H
(assert (not (str.in_re X (re.++ (str.to_re "/\u{d}\u{a}Referer: http://") (re.+ (re.union (re.range "a" "z") (re.range "0" "9") (str.to_re "-") (str.to_re "."))) (str.to_re "/?do=payment&ver=") (re.+ (re.range "0" "9")) (str.to_re "&sid=") (re.+ (re.range "0" "9")) (str.to_re "&sn=") (re.+ (re.range "0" "9")) (str.to_re "\u{d}\u{a}/H\u{a}")))))
; www\x2Eweepee\x2Ecom\d+metaresults\.copernic\.com\s+
(assert (str.in_re X (re.++ (str.to_re "www.weepee.com\u{1b}") (re.+ (re.range "0" "9")) (str.to_re "metaresults.copernic.com") (re.+ (re.union (str.to_re " ") (str.to_re "\u{9}") (str.to_re "\u{a}") (str.to_re "\u{c}") (str.to_re "\u{d}"))) (str.to_re "\u{a}"))))
; ^([a-zA-Z0-9]([a-zA-Z0-9\-]{0,61}[a-zA-Z0-9])?\.)+[a-zA-Z]{2,6}$
(assert (str.in_re X (re.++ (re.+ (re.++ (re.union (re.range "a" "z") (re.range "A" "Z") (re.range "0" "9")) (re.opt (re.++ ((_ re.loop 0 61) (re.union (re.range "a" "z") (re.range "A" "Z") (re.range "0" "9") (str.to_re "-"))) (re.union (re.range "a" "z") (re.range "A" "Z") (re.range "0" "9")))) (str.to_re "."))) ((_ re.loop 2 6) (re.union (re.range "a" "z") (re.range "A" "Z"))) (str.to_re "\u{a}"))))
(check-sat)
